unsat
(:max-memory          18.42
 :memory              18.42
 :num-allocs          40049
 :rlimit-count        2482
 :solve-eqs-elim-vars 2
 :solve-eqs-steps     5
 :time                0.00
 :total-time          0.01)
